11
49 38 58 32 45 4
36 66 67 70 76 72 50 22 54
42 53 77 64 33 15 55 9 56 69
51 3 39 60 46 25 41 47 65
74 17 31 20 75 19 26 35
13 29 27 59 61 16 57
12 44 5 23 30 6 78 68 43
62 11 34 24 2 37 8
1 63 52 28 79
73 7 10 71 14 48 18
40 21
